VALUE 302
9 10
10 11
11 12
12 13
13 14
14 15
15 16
16 17
17 18
18 19
24 25
25 26
26 27
27 28
28 29
29 30
30 31
11 31
31 51
51 52
52 53
53 54
54 55
51 69
69 86
86 105
105 125
125 144
154 155
155 156
156 157
157 158
158 159
159 160
160 161
161 162
162 163
144 163
163 164
164 165
165 166
166 167
167 168
168 169
173 174
154 174

